p edge 50 245
e 1 5
e 1 9
e 1 12
e 1 13
e 1 17
e 1 20
e 1 33
e 2 16
e 2 17
e 2 24
e 2 26
e 2 41
e 3 4
e 3 6
e 3 7
e 3 8
e 3 19
e 3 30
e 3 33
e 3 36
e 3 37
e 4 6
e 4 8
e 4 13
e 4 14
e 4 17
e 4 18
e 4 21
e 4 22
e 5 6
e 5 10
e 5 14
e 5 17
e 5 21
e 5 25
e 5 33
e 5 38
e 5 40
e 5 48
e 6 10
e 6 11
e 6 12
e 6 22
e 6 26
e 6 28
e 6 40
e 6 41
e 6 43
e 6 45
e 6 46
e 7 9
e 7 10
e 7 11
e 7 16
e 7 17
e 7 21
e 7 23
e 7 25
e 7 29
e 7 31
e 7 32
e 7 39
e 7 40
e 7 42
e 7 49
e 8 13
e 8 26
e 8 28
e 8 33
e 8 35
e 8 42
e 8 46
e 9 12
e 9 23
e 9 29
e 9 32
e 9 33
e 9 34
e 9 36
e 9 39
e 10 18
e 10 27
e 10 31
e 10 39
e 10 43
e 10 44
e 11 12
e 11 13
e 11 20
e 11 25
e 11 26
e 11 29
e 11 30
e 11 31
e 11 33
e 11 34
e 11 37
e 11 44
e 11 45
e 11 47
e 12 15
e 12 20
e 12 28
e 12 30
e 12 34
e 12 37
e 12 38
e 12 41
e 12 43
e 12 48
e 12 49
e 12 50
e 13 21
e 13 23
e 13 24
e 13 26
e 13 29
e 13 31
e 13 32
e 13 35
e 13 37
e 13 40
e 13 43
e 13 46
e 13 47
e 14 16
e 14 21
e 14 23
e 14 29
e 14 30
e 14 33
e 14 36
e 15 16
e 15 18
e 15 21
e 15 30
e 15 33
e 16 19
e 16 22
e 16 24
e 16 27
e 16 28
e 16 29
e 16 43
e 16 46
e 17 40
e 18 27
e 18 32
e 18 39
e 18 45
e 18 50
e 19 27
e 19 40
e 19 45
e 19 48
e 19 49
e 20 30
e 20 35
e 20 48
e 21 22
e 21 29
e 21 40
e 21 42
e 21 43
e 21 44
e 21 46
e 21 50
e 22 23
e 22 24
e 22 25
e 22 29
e 22 31
e 22 38
e 22 41
e 22 45
e 22 46
e 22 50
e 23 32
e 23 33
e 23 34
e 24 27
e 24 29
e 24 36
e 24 41
e 24 44
e 24 45
e 24 46
e 25 40
e 25 47
e 25 49
e 25 50
e 26 31
e 26 32
e 26 35
e 27 32
e 27 34
e 27 35
e 27 36
e 27 37
e 27 41
e 27 42
e 27 49
e 28 33
e 28 36
e 28 40
e 28 46
e 28 50
e 29 39
e 29 41
e 29 46
e 29 49
e 30 40
e 30 45
e 30 47
e 30 48
e 31 36
e 31 42
e 31 45
e 32 33
e 32 34
e 32 37
e 32 38
e 32 43
e 33 37
e 33 39
e 34 36
e 34 37
e 34 43
e 34 46
e 34 47
e 35 44
e 36 37
e 36 42
e 36 43
e 36 46
e 36 48
e 36 49
e 38 41
e 39 41
e 39 49
e 40 47
e 43 48
e 44 45
e 48 49
e 48 50
